************************************************************************
file with basedata            : md349_.bas
initial value random generator: 1663938085
************************************************************************
projects                      :  1
jobs (incl. supersource/sink ):  22
horizon                       :  153
RESOURCES
  - renewable                 :  2   R
  - nonrenewable              :  2   N
  - doubly constrained        :  0   D
************************************************************************
PROJECT INFORMATION:
pronr.  #jobs rel.date duedate tardcost  MPM-Time
    1     20      0       20       16       20
************************************************************************
PRECEDENCE RELATIONS:
jobnr.    #modes  #successors   successors
   1        1          3           2   3   4
   2        3          3           5   8  12
   3        3          2           6  10
   4        3          3           6   7  18
   5        3          3          13  15  16
   6        3          3           9  11  17
   7        3          3          10  13  15
   8        3          2          13  20
   9        3          1          21
  10        3          2          14  19
  11        3          1          19
  12        3          3          14  15  19
  13        3          1          14
  14        3          1          17
  15        3          2          17  20
  16        3          1          18
  17        3          1          21
  18        3          2          20  21
  19        3          1          22
  20        3          1          22
  21        3          1          22
  22        1          0        
************************************************************************
REQUESTS/DURATIONS:
jobnr. mode duration  R 1  R 2  N 1  N 2
------------------------------------------------------------------------
  1      1     0       0    0    0    0
  2      1     4       8    9    4    0
         2     7       4    6    0    8
         3    10       3    4    4    0
  3      1     4       1    7    0    2
         2     5       1    7    2    0
         3     8       1    6    1    0
  4      1     3       7    9    0    2
         2     4       6    9    0    1
         3     9       4    8    0    1
  5      1     7       7    7    0   10
         2     9       5    2    2    0
         3     9       5    3    0    7
  6      1     2       6   10    9    0
         2     3       6    8    5    0
         3     4       4    5    0    2
  7      1     2       8    4    8    0
         2     9       7    3    8    0
         3    10       4    1    7    0
  8      1     1       5   10    6    0
         2     6       4    5    0    4
         3     7       3    1    4    0
  9      1     2       9    3    7    0
         2     5       7    2    5    0
         3     7       5    2    0    1
 10      1     2       7    8    9    0
         2     3       7    5    8    0
         3     7       7    2    6    0
 11      1     4       9    6    7    0
         2     7       7    6    3    0
         3     9       6    4    3    0
 12      1     4      10    7    0    7
         2     6       8    6    0    7
         3     9       7    4    0    7
 13      1     3       8    7    0    5
         2     5       7    4    8    0
         3     9       6    2    0    4
 14      1     2       4    7    7    0
         2     5       2    6    0    7
         3     7       1    1    0    5
 15      1     1       9    2    2    0
         2     2       8    1    0    5
         3     4       7    1    0    3
 16      1     2       7    6    0    6
         2     3       7    5    0    6
         3     5       7    5    9    0
 17      1     2       6    2    7    0
         2     4       3    1    7    0
         3    10       3    1    6    0
 18      1     2       7    9    3    0
         2     2       6    8    0   10
         3     5       6    7    0    6
 19      1     4       8    7    7    0
         2     6       8    5    3    0
         3    10       6    2    2    0
 20      1     1       9    9    0    3
         2     4       9    9   10    0
         3     6       7    8    0    2
 21      1     2       9    3    0    7
         2     5       7    3    0    5
         3     8       5    3    0    4
 22      1     0       0    0    0    0
************************************************************************
RESOURCEAVAILABILITIES:
  R 1  R 2  N 1  N 2
   16   16  107   79
************************************************************************
MAXIMAL LAGS:
from  to  type  delay
    1   22   ES      0
    1    2   ES      0
    2   22   ES      0
    1    3   ES      0
    3   22   ES      0
    1    4   ES      0
    4   22   ES      0
    1    5   ES      0
    5   22   ES      0
    1    6   ES      0
    6   22   ES      0
    1    7   ES      0
    7   22   ES      0
    1    8   ES      0
    8   22   ES      0
    1    9   ES      0
    9   22   ES      0
    1   10   ES      0
   10   22   ES      0
    1   11   ES      0
   11   22   ES      0
    1   12   ES      0
   12   22   ES      0
    1   13   ES      0
   13   22   ES      0
    1   14   ES      0
   14   22   ES      0
    1   15   ES      0
   15   22   ES      0
    1   16   ES      0
   16   22   ES      0
    1   17   ES      0
   17   22   ES      0
    1   18   ES      0
   18   22   ES      0
    1   19   ES      0
   19   22   ES      0
    1   20   ES      0
   20   22   ES      0
    1   21   ES      0
   21   22   ES      0
    1   22   ES      0
    2    5   SS     -7
    2    5   SE     -2
    2    5   ES     -5
    2    5   EE      0
    2    8   SS      8
    2    8   SE     -3
    8    2   SE      0
    2    8   ES      0
    2    8   EE     -8
    2   12   SS      5
    2   12   SE    -11
    2   12   ES     -2
    2   12   EE     -2
    3    6   SS    -11
    3    6   SE      2
    3    6   ES      2
    3    6   EE     -4
    3   10   SS     10
    3   10   SE    -11
    3   10   ES      0
    3   10   EE     -1
    4    6   SS      2
    4    6   SE      7
    4    6   ES     -2
    4    6   EE     -1
    4    7   SS    -10
    4    7   SE     -1
    4    7   ES      0
    4    7   EE     -7
    4   18   SS     -6
    4   18   SE      6
    4   18   ES     -7
    4   18   EE     11
    5   13   SS    -12
    5   13   SE      7
    5   13   ES    -11
    5   13   EE      5
    5   15   SS     -2
    5   15   SE     12
    5   15   ES     -2
    5   15   EE     -9
    5   16   SS    -11
    5   16   SE      3
    5   16   ES      8
    5   16   EE     10
    6    9   SS     -3
    6    9   SE     11
    6    9   ES    -12
    6    9   EE      9
    6   11   SS      7
    6   11   SE     -9
    6   11   ES     -5
    6   11   EE     -9
    6   17   SS    -10
    6   17   SE     -9
    6   17   ES      2
    6   17   EE     12
    7   10   SS      4
    7   10   SE      0
    7   10   ES     -9
    7   10   EE      7
    7   13   SS      9
    7   13   SE    -12
    7   13   ES     -8
    7   13   EE     -2
    7   15   SS     -3
    7   15   SE     10
    7   15   ES      2
    7   15   EE      9
    8   13   SS      0
    8   13   SE    -11
    8   13   ES      9
    8   13   EE     10
    8   20   SS     -7
    8   20   SE     -7
    8   20   ES      8
    8   20   EE    -12
    9   21   SS      0
    9   21   SE     10
    9   21   ES      7
    9   21   EE     -1
   10   14   SS     -5
   10   14   SE     -2
   10   14   ES     -4
   10   14   EE     10
   10   19   SS    -10
   10   19   SE      9
   10   19   ES     -7
   10   19   EE    -12
   11   19   SS    -10
   11   19   SE      9
   11   19   ES     -8
   11   19   EE     -7
   12   14   SS      2
   12   14   SE     -2
   12   14   ES      6
   12   14   EE     -1
   12   15   SS    -11
   12   15   SE    -12
   12   15   ES     -7
   12   15   EE      1
   12   19   SS     12
   12   19   SE     10
   12   19   ES    -11
   12   19   EE    -10
   13   14   SS     -2
   13   14   SE     -9
   13   14   ES     -2
   13   14   EE     -6
   14   17   SS     11
   14   17   SE     -7
   14   17   ES     -1
   14   17   EE      8
   15   17   SS      9
   15   17   SE      9
   15   17   ES      6
   15   17   EE     -4
   15   20   SS      2
   15   20   SE      8
   15   20   ES      7
   15   20   EE     -2
   16   18   SS    -11
   16   18   SE      2
   16   18   ES     -3
   16   18   EE    -11
   17   21   SS      3
   17   21   SE     -9
   17   21   ES     12
   17   21   EE      2
   18   20   SS     10
   18   20   SE     -6
   18   20   ES     -8
   18   20   EE      2
   18   21   SS      7
   18   21   SE      5
   18   21   ES    -11
   18   21   EE     -1
************************************************************************
